NAME : LPS-n18-m23
COMMENT : (Lartu-Peter-Santi Plot, instance 6023 out of 39200. 18 customers.)
TYPE : CVRP
DIMENSION : 18
EDGE_WEIGHT_TYPE : EUC_2D
CAPACITY : 76
NODE_COORD_SECTION
 1 89 4
 2 82 90
 3 84 0
 4 62 98
 5 34 10
 6 23 45
 7 4 70
 8 68 36
 9 9 52
 10 68 69
 11 33 100
 12 79 8
 13 83 86
 14 76 19
 15 49 27
 16 89 90
 17 53 38
 18 83 64
DEMAND_SECTION
1 0
2 49
3 52
4 54
5 22
6 6
7 13
8 70
9 33
10 20
11 30
12 57
13 72
14 6
15 11
16 76
17 17
18 71
DEPOT_SECTION
 1
 -1
EOF
